NAME: GRASP_16_5
TYPE: TSP
COMMENT: line_16_5
DIMENSION: 16
EDGE_WEIGHT_TYPE: EUC_2D
NODE_COORD_SECTION
1 0.0 62.0
2 0.0 78.0
3 0.0 155.0
4 0.0 88.0
5 0.0 114.0
6 0.0 159.0
7 0.0 95.0
8 0.0 126.0
9 0.0 30.0
10 0.0 96.0
11 0.0 4.0
12 0.0 110.0
13 0.0 20.0
14 0.0 129.0
15 0.0 19.0
16 0.0 34.0
